mod/ex1222.sol

Options
3
2
1
0
1
0
2
2
0.9419414438458383
-2.100004298505625
